peakDumbCharging = 11100; 
Machine = anon_enum(16); 
machineSpeed = [3700,3700,3700,3700,3700,3700,3700,3700,3700,3700,3700,3700,3700,3700,3700,3700]; 
machineLoad = [3700,3700,3700,3700,3700,3700,3700,3700,3700,3700,3700,3700,3700,3700,3700,3700]; 
Car = anon_enum(9); 
demandCar = [9720,800,14960,12280,12440,12480,5960,33080,34080]; 
arrivalCar = [75,73,71,48,47,47,34,33,31]; 
departureCar = [81,74,79,55,55,55,38,51,43]; 
